c at-most-one of 12 pigeons in 11 holes
c p1@1 1
c p1@2 2
c p1@3 3
c p1@4 4
c p1@5 5
c p1@6 6
c p1@7 7
c p1@8 8
c p1@9 9
c p1@10 10
c p1@11 11
c p2@1 12
c p2@2 13
c p2@3 14
c p2@4 15
c p2@5 16
c p2@6 17
c p2@7 18
c p2@8 19
c p2@9 20
c p2@10 21
c p2@11 22
c p3@1 23
c p3@2 24
c p3@3 25
c p3@4 26
c p3@5 27
c p3@6 28
c p3@7 29
c p3@8 30
c p3@9 31
c p3@10 32
c p3@11 33
c p4@1 34
c p4@2 35
c p4@3 36
c p4@4 37
c p4@5 38
c p4@6 39
c p4@7 40
c p4@8 41
c p4@9 42
c p4@10 43
c p4@11 44
c p5@1 45
c p5@2 46
c p5@3 47
c p5@4 48
c p5@5 49
c p5@6 50
c p5@7 51
c p5@8 52
c p5@9 53
c p5@10 54
c p5@11 55
c p6@1 56
c p6@2 57
c p6@3 58
c p6@4 59
c p6@5 60
c p6@6 61
c p6@7 62
c p6@8 63
c p6@9 64
c p6@10 65
c p6@11 66
c p7@1 67
c p7@2 68
c p7@3 69
c p7@4 70
c p7@5 71
c p7@6 72
c p7@7 73
c p7@8 74
c p7@9 75
c p7@10 76
c p7@11 77
c p8@1 78
c p8@2 79
c p8@3 80
c p8@4 81
c p8@5 82
c p8@6 83
c p8@7 84
c p8@8 85
c p8@9 86
c p8@10 87
c p8@11 88
c p9@1 89
c p9@2 90
c p9@3 91
c p9@4 92
c p9@5 93
c p9@6 94
c p9@7 95
c p9@8 96
c p9@9 97
c p9@10 98
c p9@11 99
c p10@1 100
c p10@2 101
c p10@3 102
c p10@4 103
c p10@5 104
c p10@6 105
c p10@7 106
c p10@8 107
c p10@9 108
c p10@10 109
c p10@11 110
c p11@1 111
c p11@2 112
c p11@3 113
c p11@4 114
c p11@5 115
c p11@6 116
c p11@7 117
c p11@8 118
c p11@9 119
c p11@10 120
c p11@11 121
c p12@1 122
c p12@2 123
c p12@3 124
c p12@4 125
c p12@5 126
c p12@6 127
c p12@7 128
c p12@8 129
c p12@9 130
c p12@10 131
c p12@11 132
p inccnf
1 2 3 4 5 6 7 8 9 10 11 0
12 13 14 15 16 17 18 19 20 21 22 0
23 24 25 26 27 28 29 30 31 32 33 0
34 35 36 37 38 39 40 41 42 43 44 0
45 46 47 48 49 50 51 52 53 54 55 0
56 57 58 59 60 61 62 63 64 65 66 0
67 68 69 70 71 72 73 74 75 76 77 0
78 79 80 81 82 83 84 85 86 87 88 0
89 90 91 92 93 94 95 96 97 98 99 0
100 101 102 103 104 105 106 107 108 109 110 0
111 112 113 114 115 116 117 118 119 120 121 0
122 123 124 125 126 127 128 129 130 131 132 0
-1 -12 0
-1 -23 0
-1 -34 0
-1 -45 0
-1 -56 0
-1 -67 0
-1 -78 0
-1 -89 0
-1 -100 0
-1 -111 0
-1 -122 0
-12 -23 0
-12 -34 0
-12 -45 0
-12 -56 0
-12 -67 0
-12 -78 0
-12 -89 0
-12 -100 0
-12 -111 0
-12 -122 0
-23 -34 0
-23 -45 0
-23 -56 0
-23 -67 0
-23 -78 0
-23 -89 0
-23 -100 0
-23 -111 0
-23 -122 0
-34 -45 0
-34 -56 0
-34 -67 0
-34 -78 0
-34 -89 0
-34 -100 0
-34 -111 0
-34 -122 0
-45 -56 0
-45 -67 0
-45 -78 0
-45 -89 0
-45 -100 0
-45 -111 0
-45 -122 0
-56 -67 0
-56 -78 0
-56 -89 0
-56 -100 0
-56 -111 0
-56 -122 0
-67 -78 0
-67 -89 0
-67 -100 0
-67 -111 0
-67 -122 0
-78 -89 0
-78 -100 0
-78 -111 0
-78 -122 0
-89 -100 0
-89 -111 0
-89 -122 0
-100 -111 0
-100 -122 0
-111 -122 0
-2 -13 0
-2 -24 0
-2 -35 0
-2 -46 0
-2 -57 0
-2 -68 0
-2 -79 0
-2 -90 0
-2 -101 0
-2 -112 0
-2 -123 0
-13 -24 0
-13 -35 0
-13 -46 0
-13 -57 0
-13 -68 0
-13 -79 0
-13 -90 0
-13 -101 0
-13 -112 0
-13 -123 0
-24 -35 0
-24 -46 0
-24 -57 0
-24 -68 0
-24 -79 0
-24 -90 0
-24 -101 0
-24 -112 0
-24 -123 0
-35 -46 0
-35 -57 0
-35 -68 0
-35 -79 0
-35 -90 0
-35 -101 0
-35 -112 0
-35 -123 0
-46 -57 0
-46 -68 0
-46 -79 0
-46 -90 0
-46 -101 0
-46 -112 0
-46 -123 0
-57 -68 0
-57 -79 0
-57 -90 0
-57 -101 0
-57 -112 0
-57 -123 0
-68 -79 0
-68 -90 0
-68 -101 0
-68 -112 0
-68 -123 0
-79 -90 0
-79 -101 0
-79 -112 0
-79 -123 0
-90 -101 0
-90 -112 0
-90 -123 0
-101 -112 0
-101 -123 0
-112 -123 0
-3 -14 0
-3 -25 0
-3 -36 0
-3 -47 0
-3 -58 0
-3 -69 0
-3 -80 0
-3 -91 0
-3 -102 0
-3 -113 0
-3 -124 0
-14 -25 0
-14 -36 0
-14 -47 0
-14 -58 0
-14 -69 0
-14 -80 0
-14 -91 0
-14 -102 0
-14 -113 0
-14 -124 0
-25 -36 0
-25 -47 0
-25 -58 0
-25 -69 0
-25 -80 0
-25 -91 0
-25 -102 0
-25 -113 0
-25 -124 0
-36 -47 0
-36 -58 0
-36 -69 0
-36 -80 0
-36 -91 0
-36 -102 0
-36 -113 0
-36 -124 0
-47 -58 0
-47 -69 0
-47 -80 0
-47 -91 0
-47 -102 0
-47 -113 0
-47 -124 0
-58 -69 0
-58 -80 0
-58 -91 0
-58 -102 0
-58 -113 0
-58 -124 0
-69 -80 0
-69 -91 0
-69 -102 0
-69 -113 0
-69 -124 0
-80 -91 0
-80 -102 0
-80 -113 0
-80 -124 0
-91 -102 0
-91 -113 0
-91 -124 0
-102 -113 0
-102 -124 0
-113 -124 0
-4 -15 0
-4 -26 0
-4 -37 0
-4 -48 0
-4 -59 0
-4 -70 0
-4 -81 0
-4 -92 0
-4 -103 0
-4 -114 0
-4 -125 0
-15 -26 0
-15 -37 0
-15 -48 0
-15 -59 0
-15 -70 0
-15 -81 0
-15 -92 0
-15 -103 0
-15 -114 0
-15 -125 0
-26 -37 0
-26 -48 0
-26 -59 0
-26 -70 0
-26 -81 0
-26 -92 0
-26 -103 0
-26 -114 0
-26 -125 0
-37 -48 0
-37 -59 0
-37 -70 0
-37 -81 0
-37 -92 0
-37 -103 0
-37 -114 0
-37 -125 0
-48 -59 0
-48 -70 0
-48 -81 0
-48 -92 0
-48 -103 0
-48 -114 0
-48 -125 0
-59 -70 0
-59 -81 0
-59 -92 0
-59 -103 0
-59 -114 0
-59 -125 0
-70 -81 0
-70 -92 0
-70 -103 0
-70 -114 0
-70 -125 0
-81 -92 0
-81 -103 0
-81 -114 0
-81 -125 0
-92 -103 0
-92 -114 0
-92 -125 0
-103 -114 0
-103 -125 0
-114 -125 0
-5 -16 0
-5 -27 0
-5 -38 0
-5 -49 0
-5 -60 0
-5 -71 0
-5 -82 0
-5 -93 0
-5 -104 0
-5 -115 0
-5 -126 0
-16 -27 0
-16 -38 0
-16 -49 0
-16 -60 0
-16 -71 0
-16 -82 0
-16 -93 0
-16 -104 0
-16 -115 0
-16 -126 0
-27 -38 0
-27 -49 0
-27 -60 0
-27 -71 0
-27 -82 0
-27 -93 0
-27 -104 0
-27 -115 0
-27 -126 0
-38 -49 0
-38 -60 0
-38 -71 0
-38 -82 0
-38 -93 0
-38 -104 0
-38 -115 0
-38 -126 0
-49 -60 0
-49 -71 0
-49 -82 0
-49 -93 0
-49 -104 0
-49 -115 0
-49 -126 0
-60 -71 0
-60 -82 0
-60 -93 0
-60 -104 0
-60 -115 0
-60 -126 0
-71 -82 0
-71 -93 0
-71 -104 0
-71 -115 0
-71 -126 0
-82 -93 0
-82 -104 0
-82 -115 0
-82 -126 0
-93 -104 0
-93 -115 0
-93 -126 0
-104 -115 0
-104 -126 0
-115 -126 0
-6 -17 0
-6 -28 0
-6 -39 0
-6 -50 0
-6 -61 0
-6 -72 0
-6 -83 0
-6 -94 0
-6 -105 0
-6 -116 0
-6 -127 0
-17 -28 0
-17 -39 0
-17 -50 0
-17 -61 0
-17 -72 0
-17 -83 0
-17 -94 0
-17 -105 0
-17 -116 0
-17 -127 0
-28 -39 0
-28 -50 0
-28 -61 0
-28 -72 0
-28 -83 0
-28 -94 0
-28 -105 0
-28 -116 0
-28 -127 0
-39 -50 0
-39 -61 0
-39 -72 0
-39 -83 0
-39 -94 0
-39 -105 0
-39 -116 0
-39 -127 0
-50 -61 0
-50 -72 0
-50 -83 0
-50 -94 0
-50 -105 0
-50 -116 0
-50 -127 0
-61 -72 0
-61 -83 0
-61 -94 0
-61 -105 0
-61 -116 0
-61 -127 0
-72 -83 0
-72 -94 0
-72 -105 0
-72 -116 0
-72 -127 0
-83 -94 0
-83 -105 0
-83 -116 0
-83 -127 0
-94 -105 0
-94 -116 0
-94 -127 0
-105 -116 0
-105 -127 0
-116 -127 0
-7 -18 0
-7 -29 0
-7 -40 0
-7 -51 0
-7 -62 0
-7 -73 0
-7 -84 0
-7 -95 0
-7 -106 0
-7 -117 0
-7 -128 0
-18 -29 0
-18 -40 0
-18 -51 0
-18 -62 0
-18 -73 0
-18 -84 0
-18 -95 0
-18 -106 0
-18 -117 0
-18 -128 0
-29 -40 0
-29 -51 0
-29 -62 0
-29 -73 0
-29 -84 0
-29 -95 0
-29 -106 0
-29 -117 0
-29 -128 0
-40 -51 0
-40 -62 0
-40 -73 0
-40 -84 0
-40 -95 0
-40 -106 0
-40 -117 0
-40 -128 0
-51 -62 0
-51 -73 0
-51 -84 0
-51 -95 0
-51 -106 0
-51 -117 0
-51 -128 0
-62 -73 0
-62 -84 0
-62 -95 0
-62 -106 0
-62 -117 0
-62 -128 0
-73 -84 0
-73 -95 0
-73 -106 0
-73 -117 0
-73 -128 0
-84 -95 0
-84 -106 0
-84 -117 0
-84 -128 0
-95 -106 0
-95 -117 0
-95 -128 0
-106 -117 0
-106 -128 0
-117 -128 0
-8 -19 0
-8 -30 0
-8 -41 0
-8 -52 0
-8 -63 0
-8 -74 0
-8 -85 0
-8 -96 0
-8 -107 0
-8 -118 0
-8 -129 0
-19 -30 0
-19 -41 0
-19 -52 0
-19 -63 0
-19 -74 0
-19 -85 0
-19 -96 0
-19 -107 0
-19 -118 0
-19 -129 0
-30 -41 0
-30 -52 0
-30 -63 0
-30 -74 0
-30 -85 0
-30 -96 0
-30 -107 0
-30 -118 0
-30 -129 0
-41 -52 0
-41 -63 0
-41 -74 0
-41 -85 0
-41 -96 0
-41 -107 0
-41 -118 0
-41 -129 0
-52 -63 0
-52 -74 0
-52 -85 0
-52 -96 0
-52 -107 0
-52 -118 0
-52 -129 0
-63 -74 0
-63 -85 0
-63 -96 0
-63 -107 0
-63 -118 0
-63 -129 0
-74 -85 0
-74 -96 0
-74 -107 0
-74 -118 0
-74 -129 0
-85 -96 0
-85 -107 0
-85 -118 0
-85 -129 0
-96 -107 0
-96 -118 0
-96 -129 0
-107 -118 0
-107 -129 0
-118 -129 0
-9 -20 0
-9 -31 0
-9 -42 0
-9 -53 0
-9 -64 0
-9 -75 0
-9 -86 0
-9 -97 0
-9 -108 0
-9 -119 0
-9 -130 0
-20 -31 0
-20 -42 0
-20 -53 0
-20 -64 0
-20 -75 0
-20 -86 0
-20 -97 0
-20 -108 0
-20 -119 0
-20 -130 0
-31 -42 0
-31 -53 0
-31 -64 0
-31 -75 0
-31 -86 0
-31 -97 0
-31 -108 0
-31 -119 0
-31 -130 0
-42 -53 0
-42 -64 0
-42 -75 0
-42 -86 0
-42 -97 0
-42 -108 0
-42 -119 0
-42 -130 0
-53 -64 0
-53 -75 0
-53 -86 0
-53 -97 0
-53 -108 0
-53 -119 0
-53 -130 0
-64 -75 0
-64 -86 0
-64 -97 0
-64 -108 0
-64 -119 0
-64 -130 0
-75 -86 0
-75 -97 0
-75 -108 0
-75 -119 0
-75 -130 0
-86 -97 0
-86 -108 0
-86 -119 0
-86 -130 0
-97 -108 0
-97 -119 0
-97 -130 0
-108 -119 0
-108 -130 0
-119 -130 0
-10 -21 0
-10 -32 0
-10 -43 0
-10 -54 0
-10 -65 0
-10 -76 0
-10 -87 0
-10 -98 0
-10 -109 0
-10 -120 0
-10 -131 0
-21 -32 0
-21 -43 0
-21 -54 0
-21 -65 0
-21 -76 0
-21 -87 0
-21 -98 0
-21 -109 0
-21 -120 0
-21 -131 0
-32 -43 0
-32 -54 0
-32 -65 0
-32 -76 0
-32 -87 0
-32 -98 0
-32 -109 0
-32 -120 0
-32 -131 0
-43 -54 0
-43 -65 0
-43 -76 0
-43 -87 0
-43 -98 0
-43 -109 0
-43 -120 0
-43 -131 0
-54 -65 0
-54 -76 0
-54 -87 0
-54 -98 0
-54 -109 0
-54 -120 0
-54 -131 0
-65 -76 0
-65 -87 0
-65 -98 0
-65 -109 0
-65 -120 0
-65 -131 0
-76 -87 0
-76 -98 0
-76 -109 0
-76 -120 0
-76 -131 0
-87 -98 0
-87 -109 0
-87 -120 0
-87 -131 0
-98 -109 0
-98 -120 0
-98 -131 0
-109 -120 0
-109 -131 0
-120 -131 0
-11 -22 0
-11 -33 0
-11 -44 0
-11 -55 0
-11 -66 0
-11 -77 0
-11 -88 0
-11 -99 0
-11 -110 0
-11 -121 0
-11 -132 0
-22 -33 0
-22 -44 0
-22 -55 0
-22 -66 0
-22 -77 0
-22 -88 0
-22 -99 0
-22 -110 0
-22 -121 0
-22 -132 0
-33 -44 0
-33 -55 0
-33 -66 0
-33 -77 0
-33 -88 0
-33 -99 0
-33 -110 0
-33 -121 0
-33 -132 0
-44 -55 0
-44 -66 0
-44 -77 0
-44 -88 0
-44 -99 0
-44 -110 0
-44 -121 0
-44 -132 0
-55 -66 0
-55 -77 0
-55 -88 0
-55 -99 0
-55 -110 0
-55 -121 0
-55 -132 0
-66 -77 0
-66 -88 0
-66 -99 0
-66 -110 0
-66 -121 0
-66 -132 0
-77 -88 0
-77 -99 0
-77 -110 0
-77 -121 0
-77 -132 0
-88 -99 0
-88 -110 0
-88 -121 0
-88 -132 0
-99 -110 0
-99 -121 0
-99 -132 0
-110 -121 0
-110 -132 0
-121 -132 0
a 1 13 0 
a 2 12 0 
a 1 14 0 
a 3 12 0 
a 1 15 0 
a 4 12 0 
a 1 16 0 
a 5 12 0 
a 1 17 0 
a 6 12 0 
a 1 18 0 
a 7 12 0 
a 1 19 0 
a 8 12 0 
a 1 20 0 
a 9 12 0 
a 1 21 0 
a 10 12 0 
a 1 22 0 
a 11 12 0 
a 1 23 0 
a 12 12 0 
a 12 0 
a 1 24 0 
a 2 23 0 
a 1 25 0 
a 3 23 0 
a 1 26 0 
a 4 23 0 
a 1 27 0 
a 5 23 0 
a 1 28 0 
a 6 23 0 
a 1 29 0 
a 7 23 0 
a 1 30 0 
a 8 23 0 
a 1 31 0 
a 9 23 0 
a 1 32 0 
a 10 23 0 
a 1 33 0 
a 11 23 0 
a 1 34 0 
a 12 23 0 
a 23 0 
a 1 35 0 
a 2 34 0 
a 1 36 0 
a 3 34 0 
a 1 37 0 
a 4 34 0 
a 1 38 0 
a 5 34 0 
a 1 39 0 
a 6 34 0 
a 1 40 0 
a 7 34 0 
a 1 41 0 
a 8 34 0 
a 1 42 0 
a 9 34 0 
a 1 43 0 
a 10 34 0 
a 1 44 0 
a 11 34 0 
a 1 45 0 
a 12 34 0 
a 34 0 
a 1 46 0 
a 2 45 0 
a 1 47 0 
a 3 45 0 
a 1 48 0 
a 4 45 0 
a 1 49 0 
a 5 45 0 
a 1 50 0 
a 6 45 0 
a 1 51 0 
a 7 45 0 
a 1 52 0 
a 8 45 0 
a 1 53 0 
a 9 45 0 
a 1 54 0 
a 10 45 0 
a 1 55 0 
a 11 45 0 
a 1 56 0 
a 12 45 0 
a 45 0 
a 1 57 0 
a 2 56 0 
a 1 58 0 
a 3 56 0 
a 1 59 0 
a 4 56 0 
a 1 60 0 
a 5 56 0 
a 1 61 0 
a 6 56 0 
a 1 62 0 
a 7 56 0 
a 1 63 0 
a 8 56 0 
a 1 64 0 
a 9 56 0 
a 1 65 0 
a 10 56 0 
a 1 66 0 
a 11 56 0 
a 1 67 0 
a 12 56 0 
a 56 0 
a 1 68 0 
a 2 67 0 
a 1 69 0 
a 3 67 0 
a 1 70 0 
a 4 67 0 
a 1 71 0 
a 5 67 0 
a 1 72 0 
a 6 67 0 
a 1 73 0 
a 7 67 0 
a 1 74 0 
a 8 67 0 
a 1 75 0 
a 9 67 0 
a 1 76 0 
a 10 67 0 
a 1 77 0 
a 11 67 0 
a 1 78 0 
a 12 67 0 
a 67 0 
a 1 79 0 
a 2 78 0 
a 1 80 0 
a 3 78 0 
a 1 81 0 
a 4 78 0 
a 1 82 0 
a 5 78 0 
a 1 83 0 
a 6 78 0 
a 1 84 0 
a 7 78 0 
a 1 85 0 
a 8 78 0 
a 1 86 0 
a 9 78 0 
a 1 87 0 
a 10 78 0 
a 1 88 0 
a 11 78 0 
a 1 89 0 
a 12 78 0 
a 78 0 
a 1 90 0 
a 2 89 0 
a 1 91 0 
a 3 89 0 
a 1 92 0 
a 4 89 0 
a 1 93 0 
a 5 89 0 
a 1 94 0 
a 6 89 0 
a 1 95 0 
a 7 89 0 
a 1 96 0 
a 8 89 0 
a 1 97 0 
a 9 89 0 
a 1 98 0 
a 10 89 0 
a 1 99 0 
a 11 89 0 
a 1 100 0 
a 12 89 0 
a 89 0 
a 1 101 0 
a 2 100 0 
a 1 102 0 
a 3 100 0 
a 1 103 0 
a 4 100 0 
a 1 104 0 
a 5 100 0 
a 1 105 0 
a 6 100 0 
a 1 106 0 
a 7 100 0 
a 1 107 0 
a 8 100 0 
a 1 108 0 
a 9 100 0 
a 1 109 0 
a 10 100 0 
a 1 110 0 
a 11 100 0 
a 1 111 0 
a 12 100 0 
a 100 0 
a 1 112 0 
a 2 111 0 
a 1 113 0 
a 3 111 0 
a 1 114 0 
a 4 111 0 
a 1 115 0 
a 5 111 0 
a 1 116 0 
a 6 111 0 
a 1 117 0 
a 7 111 0 
a 1 118 0 
a 8 111 0 
a 1 119 0 
a 9 111 0 
a 1 120 0 
a 10 111 0 
a 1 121 0 
a 11 111 0 
a 1 122 0 
a 12 111 0 
a 111 0 
a 13 25 0 
a 14 24 0 
a 13 26 0 
a 15 24 0 
a 13 27 0 
a 16 24 0 
a 13 28 0 
a 17 24 0 
a 13 29 0 
a 18 24 0 
a 13 30 0 
a 19 24 0 
a 13 31 0 
a 20 24 0 
a 13 32 0 
a 21 24 0 
a 13 33 0 
a 22 24 0 
a 13 34 0 
a 23 24 0 
a 24 0 
a 13 36 0 
a 14 35 0 
a 13 37 0 
a 15 35 0 
a 13 38 0 
a 16 35 0 
a 13 39 0 
a 17 35 0 
a 13 40 0 
a 18 35 0 
a 13 41 0 
a 19 35 0 
a 13 42 0 
a 20 35 0 
a 13 43 0 
a 21 35 0 
a 13 44 0 
a 22 35 0 
a 13 45 0 
a 23 35 0 
a 35 0 
a 13 47 0 
a 14 46 0 
a 13 48 0 
a 15 46 0 
a 13 49 0 
a 16 46 0 
a 13 50 0 
a 17 46 0 
a 13 51 0 
a 18 46 0 
a 13 52 0 
a 19 46 0 
a 13 53 0 
a 20 46 0 
a 13 54 0 
a 21 46 0 
a 13 55 0 
a 22 46 0 
a 13 56 0 
a 23 46 0 
a 46 0 
a 13 58 0 
a 14 57 0 
a 13 59 0 
a 15 57 0 
a 13 60 0 
a 16 57 0 
a 13 61 0 
a 17 57 0 
a 13 62 0 
a 18 57 0 
a 13 63 0 
a 19 57 0 
a 13 64 0 
a 20 57 0 
a 13 65 0 
a 21 57 0 
a 13 66 0 
a 22 57 0 
a 13 67 0 
a 23 57 0 
a 57 0 
a 13 69 0 
a 14 68 0 
a 13 70 0 
a 15 68 0 
a 13 71 0 
a 16 68 0 
a 13 72 0 
a 17 68 0 
a 13 73 0 
a 18 68 0 
a 13 74 0 
a 19 68 0 
a 13 75 0 
a 20 68 0 
a 13 76 0 
a 21 68 0 
a 13 77 0 
a 22 68 0 
a 13 78 0 
a 23 68 0 
a 68 0 
a 13 80 0 
a 14 79 0 
a 13 81 0 
a 15 79 0 
a 13 82 0 
a 16 79 0 
a 13 83 0 
a 17 79 0 
a 13 84 0 
a 18 79 0 
a 13 85 0 
a 19 79 0 
a 13 86 0 
a 20 79 0 
a 13 87 0 
a 21 79 0 
a 13 88 0 
a 22 79 0 
a 13 89 0 
a 23 79 0 
a 79 0 
a 13 91 0 
a 14 90 0 
a 13 92 0 
a 15 90 0 
a 13 93 0 
a 16 90 0 
a 13 94 0 
a 17 90 0 
a 13 95 0 
a 18 90 0 
a 13 96 0 
a 19 90 0 
a 13 97 0 
a 20 90 0 
a 13 98 0 
a 21 90 0 
a 13 99 0 
a 22 90 0 
a 13 100 0 
a 23 90 0 
a 90 0 
a 13 102 0 
a 14 101 0 
a 13 103 0 
a 15 101 0 
a 13 104 0 
a 16 101 0 
a 13 105 0 
a 17 101 0 
a 13 106 0 
a 18 101 0 
a 13 107 0 
a 19 101 0 
a 13 108 0 
a 20 101 0 
a 13 109 0 
a 21 101 0 
a 13 110 0 
a 22 101 0 
a 13 111 0 
a 23 101 0 
a 101 0 
a 13 113 0 
a 14 112 0 
a 13 114 0 
a 15 112 0 
a 13 115 0 
a 16 112 0 
a 13 116 0 
a 17 112 0 
a 13 117 0 
a 18 112 0 
a 13 118 0 
a 19 112 0 
a 13 119 0 
a 20 112 0 
a 13 120 0 
a 21 112 0 
a 13 121 0 
a 22 112 0 
a 13 122 0 
a 23 112 0 
a 112 0 
a 25 37 0 
a 26 36 0 
a 25 38 0 
a 27 36 0 
a 25 39 0 
a 28 36 0 
a 25 40 0 
a 29 36 0 
a 25 41 0 
a 30 36 0 
a 25 42 0 
a 31 36 0 
a 25 43 0 
a 32 36 0 
a 25 44 0 
a 33 36 0 
a 25 45 0 
a 34 36 0 
a 36 0 
a 25 48 0 
a 26 47 0 
a 25 49 0 
a 27 47 0 
a 25 50 0 
a 28 47 0 
a 25 51 0 
a 29 47 0 
a 25 52 0 
a 30 47 0 
a 25 53 0 
a 31 47 0 
a 25 54 0 
a 32 47 0 
a 25 55 0 
a 33 47 0 
a 25 56 0 
a 34 47 0 
a 47 0 
a 25 59 0 
a 26 58 0 
a 25 60 0 
a 27 58 0 
a 25 61 0 
a 28 58 0 
a 25 62 0 
a 29 58 0 
a 25 63 0 
a 30 58 0 
a 25 64 0 
a 31 58 0 
a 25 65 0 
a 32 58 0 
a 25 66 0 
a 33 58 0 
a 25 67 0 
a 34 58 0 
a 58 0 
a 25 70 0 
a 26 69 0 
a 25 71 0 
a 27 69 0 
a 25 72 0 
a 28 69 0 
a 25 73 0 
a 29 69 0 
a 25 74 0 
a 30 69 0 
a 25 75 0 
a 31 69 0 
a 25 76 0 
a 32 69 0 
a 25 77 0 
a 33 69 0 
a 25 78 0 
a 34 69 0 
a 69 0 
a 25 81 0 
a 26 80 0 
a 25 82 0 
a 27 80 0 
a 25 83 0 
a 28 80 0 
a 25 84 0 
a 29 80 0 
a 25 85 0 
a 30 80 0 
a 25 86 0 
a 31 80 0 
a 25 87 0 
a 32 80 0 
a 25 88 0 
a 33 80 0 
a 25 89 0 
a 34 80 0 
a 80 0 
a 25 92 0 
a 26 91 0 
a 25 93 0 
a 27 91 0 
a 25 94 0 
a 28 91 0 
a 25 95 0 
a 29 91 0 
a 25 96 0 
a 30 91 0 
a 25 97 0 
a 31 91 0 
a 25 98 0 
a 32 91 0 
a 25 99 0 
a 33 91 0 
a 25 100 0 
a 34 91 0 
a 91 0 
a 25 103 0 
a 26 102 0 
a 25 104 0 
a 27 102 0 
a 25 105 0 
a 28 102 0 
a 25 106 0 
a 29 102 0 
a 25 107 0 
a 30 102 0 
a 25 108 0 
a 31 102 0 
a 25 109 0 
a 32 102 0 
a 25 110 0 
a 33 102 0 
a 25 111 0 
a 34 102 0 
a 102 0 
a 25 114 0 
a 26 113 0 
a 25 115 0 
a 27 113 0 
a 25 116 0 
a 28 113 0 
a 25 117 0 
a 29 113 0 
a 25 118 0 
a 30 113 0 
a 25 119 0 
a 31 113 0 
a 25 120 0 
a 32 113 0 
a 25 121 0 
a 33 113 0 
a 25 122 0 
a 34 113 0 
a 113 0 
a 37 49 0 
a 38 48 0 
a 37 50 0 
a 39 48 0 
a 37 51 0 
a 40 48 0 
a 37 52 0 
a 41 48 0 
a 37 53 0 
a 42 48 0 
a 37 54 0 
a 43 48 0 
a 37 55 0 
a 44 48 0 
a 37 56 0 
a 45 48 0 
a 48 0 
a 37 60 0 
a 38 59 0 
a 37 61 0 
a 39 59 0 
a 37 62 0 
a 40 59 0 
a 37 63 0 
a 41 59 0 
a 37 64 0 
a 42 59 0 
a 37 65 0 
a 43 59 0 
a 37 66 0 
a 44 59 0 
a 37 67 0 
a 45 59 0 
a 59 0 
a 37 71 0 
a 38 70 0 
a 37 72 0 
a 39 70 0 
a 37 73 0 
a 40 70 0 
a 37 74 0 
a 41 70 0 
a 37 75 0 
a 42 70 0 
a 37 76 0 
a 43 70 0 
a 37 77 0 
a 44 70 0 
a 37 78 0 
a 45 70 0 
a 70 0 
a 37 82 0 
a 38 81 0 
a 37 83 0 
a 39 81 0 
a 37 84 0 
a 40 81 0 
a 37 85 0 
a 41 81 0 
a 37 86 0 
a 42 81 0 
a 37 87 0 
a 43 81 0 
a 37 88 0 
a 44 81 0 
a 37 89 0 
a 45 81 0 
a 81 0 
a 37 93 0 
a 38 92 0 
a 37 94 0 
a 39 92 0 
a 37 95 0 
a 40 92 0 
a 37 96 0 
a 41 92 0 
a 37 97 0 
a 42 92 0 
a 37 98 0 
a 43 92 0 
a 37 99 0 
a 44 92 0 
a 37 100 0 
a 45 92 0 
a 92 0 
a 37 104 0 
a 38 103 0 
a 37 105 0 
a 39 103 0 
a 37 106 0 
a 40 103 0 
a 37 107 0 
a 41 103 0 
a 37 108 0 
a 42 103 0 
a 37 109 0 
a 43 103 0 
a 37 110 0 
a 44 103 0 
a 37 111 0 
a 45 103 0 
a 103 0 
a 37 115 0 
a 38 114 0 
a 37 116 0 
a 39 114 0 
a 37 117 0 
a 40 114 0 
a 37 118 0 
a 41 114 0 
a 37 119 0 
a 42 114 0 
a 37 120 0 
a 43 114 0 
a 37 121 0 
a 44 114 0 
a 37 122 0 
a 45 114 0 
a 114 0 
a 49 61 0 
a 50 60 0 
a 49 62 0 
a 51 60 0 
a 49 63 0 
a 52 60 0 
a 49 64 0 
a 53 60 0 
a 49 65 0 
a 54 60 0 
a 49 66 0 
a 55 60 0 
a 49 67 0 
a 56 60 0 
a 60 0 
a 49 72 0 
a 50 71 0 
a 49 73 0 
a 51 71 0 
a 49 74 0 
a 52 71 0 
a 49 75 0 
a 53 71 0 
a 49 76 0 
a 54 71 0 
a 49 77 0 
a 55 71 0 
a 49 78 0 
a 56 71 0 
a 71 0 
a 49 83 0 
a 50 82 0 
a 49 84 0 
a 51 82 0 
a 49 85 0 
a 52 82 0 
a 49 86 0 
a 53 82 0 
a 49 87 0 
a 54 82 0 
a 49 88 0 
a 55 82 0 
a 49 89 0 
a 56 82 0 
a 82 0 
a 49 94 0 
a 50 93 0 
a 49 95 0 
a 51 93 0 
a 49 96 0 
a 52 93 0 
a 49 97 0 
a 53 93 0 
a 49 98 0 
a 54 93 0 
a 49 99 0 
a 55 93 0 
a 49 100 0 
a 56 93 0 
a 93 0 
a 49 105 0 
a 50 104 0 
a 49 106 0 
a 51 104 0 
a 49 107 0 
a 52 104 0 
a 49 108 0 
a 53 104 0 
a 49 109 0 
a 54 104 0 
a 49 110 0 
a 55 104 0 
a 49 111 0 
a 56 104 0 
a 104 0 
a 49 116 0 
a 50 115 0 
a 49 117 0 
a 51 115 0 
a 49 118 0 
a 52 115 0 
a 49 119 0 
a 53 115 0 
a 49 120 0 
a 54 115 0 
a 49 121 0 
a 55 115 0 
a 49 122 0 
a 56 115 0 
a 115 0 
a 61 73 0 
a 62 72 0 
a 61 74 0 
a 63 72 0 
a 61 75 0 
a 64 72 0 
a 61 76 0 
a 65 72 0 
a 61 77 0 
a 66 72 0 
a 61 78 0 
a 67 72 0 
a 72 0 
a 61 84 0 
a 62 83 0 
a 61 85 0 
a 63 83 0 
a 61 86 0 
a 64 83 0 
a 61 87 0 
a 65 83 0 
a 61 88 0 
a 66 83 0 
a 61 89 0 
a 67 83 0 
a 83 0 
a 61 95 0 
a 62 94 0 
a 61 96 0 
a 63 94 0 
a 61 97 0 
a 64 94 0 
a 61 98 0 
a 65 94 0 
a 61 99 0 
a 66 94 0 
a 61 100 0 
a 67 94 0 
a 94 0 
a 61 106 0 
a 62 105 0 
a 61 107 0 
a 63 105 0 
a 61 108 0 
a 64 105 0 
a 61 109 0 
a 65 105 0 
a 61 110 0 
a 66 105 0 
a 61 111 0 
a 67 105 0 
a 105 0 
a 61 117 0 
a 62 116 0 
a 61 118 0 
a 63 116 0 
a 61 119 0 
a 64 116 0 
a 61 120 0 
a 65 116 0 
a 61 121 0 
a 66 116 0 
a 61 122 0 
a 67 116 0 
a 116 0 
a 73 85 0 
a 74 84 0 
a 73 86 0 
a 75 84 0 
a 73 87 0 
a 76 84 0 
a 73 88 0 
a 77 84 0 
a 73 89 0 
a 78 84 0 
a 84 0 
a 73 96 0 
a 74 95 0 
a 73 97 0 
a 75 95 0 
a 73 98 0 
a 76 95 0 
a 73 99 0 
a 77 95 0 
a 73 100 0 
a 78 95 0 
a 95 0 
a 73 107 0 
a 74 106 0 
a 73 108 0 
a 75 106 0 
a 73 109 0 
a 76 106 0 
a 73 110 0 
a 77 106 0 
a 73 111 0 
a 78 106 0 
a 106 0 
a 73 118 0 
a 74 117 0 
a 73 119 0 
a 75 117 0 
a 73 120 0 
a 76 117 0 
a 73 121 0 
a 77 117 0 
a 73 122 0 
a 78 117 0 
a 117 0 
a 85 97 0 
a 86 96 0 
a 85 98 0 
a 87 96 0 
a 85 99 0 
a 88 96 0 
a 85 100 0 
a 89 96 0 
a 96 0 
a 85 108 0 
a 86 107 0 
a 85 109 0 
a 87 107 0 
a 85 110 0 
a 88 107 0 
a 85 111 0 
a 89 107 0 
a 107 0 
a 85 119 0 
a 86 118 0 
a 85 120 0 
a 87 118 0 
a 85 121 0 
a 88 118 0 
a 85 122 0 
a 89 118 0 
a 118 0 
a 97 109 0 
a 98 108 0 
a 97 110 0 
a 99 108 0 
a 97 111 0 
a 100 108 0 
a 108 0 
a 97 120 0 
a 98 119 0 
a 97 121 0 
a 99 119 0 
a 97 122 0 
a 100 119 0 
a 119 0 
a 109 121 0 
a 110 120 0 
a 109 122 0 
a 111 120 0 
a 120 0 
